# created by fftool

units real
boundary p p p

atom_style full
bond_style harmonic
angle_style harmonic
dihedral_style opls

special_bonds lj/coul 0.0 0.0 0.5

pair_style hybrid lj/cut/coul/long 12.0 12.0
pair_modify mix geometric tail yes
kspace_style pppm 1.0e-5

#read_data data.lmp #data1.txt
read_restart restart.lmp.760000

pair_coeff    1    1 lj/cut/coul/long     0.065999     3.500000  # CBT CBT
pair_coeff    2    2 lj/cut/coul/long     0.061042     3.118000  # F1 F1
pair_coeff    3    3 lj/cut/coul/long     0.250000     3.550000  # SBT SBT
pair_coeff    4    4 lj/cut/coul/long     0.170000     3.250000  # NBT NBT
pair_coeff    5    5 lj/cut/coul/long     0.200134     3.150000  # OBT OBT
pair_coeff    6    6 lj/cut/coul/long     0.170000     3.250000  # NA NA
pair_coeff    7    7 lj/cut/coul/long     0.070000     3.550000  # CR CR
pair_coeff    8    8 lj/cut/coul/long     0.070000     3.550000  # CW CW
pair_coeff    9    9 lj/cut/coul/long     0.065999     3.500000  # C1 C1
pair_coeff   10   10 lj/cut/coul/long     0.030000     2.420000  # HCR HCR
pair_coeff   11   11 lj/cut/coul/long     0.030000     2.420000  # HCW HCW
pair_coeff   12   12 lj/cut/coul/long     0.030000     2.500000  # H1 H1
pair_coeff   13   13 lj/cut/coul/long     0.065999     3.500000  # CE CE
pair_coeff   14   14 lj/cut/coul/long     0.030000     2.500000  # HC HC
pair_coeff   15   15 lj/cut/coul/long     0.170000     3.250000  # N4 N4

# minimize 1.0e-4 1.0e-6 1000 1000
# reset_timestep 0

fix SHAKE all shake 0.0001 20 0 b 9 10 11

neighbor 2.0 bin
neigh_modify delay 0 every 1 check yes

timestep 2.0

variable TK equal 400.0
variable PBAR equal 1.0

velocity all create ${TK} 12345

fix TPSTAT all npt temp ${TK} ${TK} 100 iso ${PBAR} ${PBAR} 1000

thermo_style custom step cpu etotal ke pe evdwl ecoul elong temp press vol density
thermo 1000

dump TRAJ all custom 1000 dump.lammpstrj id mol type element q x y z #ix iy iz
dump_modify TRAJ element C F S N O N C C C H H H C H N

#variable t equal time
#compute MSD all msd com yes
#variable msd equal c_MSD[4]
#fix PRMSD all print 2000 "${t} ${msd}" file msd.lammps screen no
#
#variable vinst equal vol
#fix VAVG all ave/time 10 1000 50000 v_vinst

# restart 10000 restart1.lmp restart2.lmp

restart 10000 restart.lmp
run 2000000 #2ns

#variable lscale equal (f_VAVG/v_vinst)^(1.0/3.0)
#print "scaling coordinates by ${lscale}"
#change_box all x scale ${lscale} y scale ${lscale} z scale ${lscale} remap
#
#unfix VAVG
#unfix TPSTAT
#fix TSTAT all nvt temp ${TK} ${TK} 100
#
#run 10000

write_data data1.txt
write_restart restart.eq.lmp
